000 000 000 000 000 000 000 000 000 000 000 000 000 000 000 000 000 001 000 000 000 000 -99 -99 000 000 000 000 -99 -99 -99
000 000 000 000 000 000 000 000 000 000 000 000 000 000 000 000 000 000 000 000 000 000 000 000 000 000 -99 000 -99 -99 -99
000 000 000 000 000 000 000 000 000 000 000 000 000 000 000 000 000 000 000 000 000 000 000 000 000 000 -99 000 001 -99 -99
000 000 000 000 000 000 000 000 000 000 000 000 000 000 000 000 000 000 000 000 000 000 000 000 000 000 -99 000 001 -99 -99
000 000 000 000 000 000 000 000 000 000 000 000 000 000 000 000 000 001 000 000 000 000 000 000 000 -99 -99 -99 000 -99 -99
000 000 000 000 000 000 000 000 000 000 000 000 000 000 000 000 000 000 000 000 000 000 000 000 000 -99 -99 -99 -99 -99 000
000 000 000 000 000 000 000 000 000 000 000 000 000 000 000 000 000 000 000 000 000 000 000 -99 000 -99 -99 -99 -99 -99 -99
000 000 000 000 000 000 000 000 000 000 000 000 000 000 000 000 000 000 000 000 000 000 000 -99 000 -99 -99 -99 -99 000 000
000 000 000 000 001 000 000 000 001 000 000 000 000 000 000 000 000 000 000 000 000 -99 000 000 000 -99 000 000 -99 000 000
000 000 000 000 001 001 000 000 000 000 000 000 000 000 000 000 000 000 000 000 000 000 000 -99 000 000 003 000 000 000 000
000 000 000 001 001 000 000 000 000 000 000 000 000 000 000 000 000 000 000 000 000 000 000 -99 000 000 003 000 000 000 000
000 000 001 001 001 001 000 000 000 000 000 000 000 000 000 000 000 000 000 000 000 000 -99 000 000 -99 007 003 -99 000 000
000 000 000 000 000 000 000 000 000 000 000 000 000 000 000 000 000 000 000 000 -99 000 -99 000 000 000 005 003 000 000 000
000 001 000 000 000 000 000 000 000 000 000 000 000 000 000 000 000 000 000 -99 000 000 -99 000 000 000 000 000 000 -99 -99
000 000 000 000 000 000 000 000 000 000 000 -99 000 000 000 000 000 -99 -99 -99 -99 000 -99 000 000 000 000 000 000 -99 -99
000 000 000 000 000 000 000 000 000 -99 -99 -99 -99 000 000 000 000 000 -99 -99 000 000 -99 000 000 -99 000 000 000 000 -99
000 000 000 -99 000 000 000 000 000 -99 -99 -99 -99 -99 -99 -99 000 000 -99 -99 -99 000 000 000 000 -99 -99 000 000 000 -99
000 000 000 -99 000 000 000 000 000 -99 000 000 -99 -99 -99 -99 000 000 000 -99 000 000 000 -99 000 -99 -99 -99 000 000 -99
000 000 000 000 000 000 -99 000 000 -99 000 000 -99 000 000 -99 000 000 000 -99 000 000 000 -99 -99 -99 -99 -99 -99 000 000
000 000 000 000 -99 -99 -99 -99 -99 -99 000 000 -99 000 000 -99 000 000 000 000 000 000 000 -99 -99 -99 -99 -99 -99 000 -99
000 000 000 000 000 -99 -99 -99 -99 -99 000 -99 -99 000 000 000 000 000 000 000 000 000 000 -99 -99 -99 -99 -99 -99 -99 -99
000 000 000 000 000 000 000 -99 -99 -99 -99 -99 -99 000 000 000 000 000 000 000 000 000 000 -99 -99 -99 -99 -99 -99 -99 -99
000 000 000 000 000 000 000 000 000 -99 -99 -99 -99 000 000 000 000 000 000 000 000 000 000 -99 -99 -99 -99 -99 -99 -99 -99
000 000 000 000 000 000 000 000 000 -99 -99 -99 000 000 000 000 000 000 000 000 000 000 000 -99 -99 -99 -99 -99 -99 -99 -99
000 000 000 000 000 000 000 000 000 -99 -99 -99 000 000 000 000 000 000 000 000 000 000 000 -99 -99 -99 -99 -99 -99 -99 -99
000 000 000 000 000 000 000 000 000 -99 -99 -99 000 000 000 000 000 000 000 000 000 -99 -99 -99 -99 -99 -99 -99 -99 -99 000
000 000 000 000 000 000 000 000 000 -99 -99 -99 -99 000 000 000 000 000 000 000 000 000 -99 -99 -99 -99 -99 -99 -99 -99 000
000 000 000 000 000 000 000 000 000 -99 -99 -99 -99 000 000 -99 000 000 000 000 000 000 -99 -99 -99 -99 -99 -99 -99 -99 000
000 000 000 000 000 000 000 000 000 000 -99 -99 -99 000 000 000 000 000 000 000 000 000 -99 -99 -99 -99 -99 -99 -99 -99 000
000 000 000 000 000 000 000 000 000 000 -99 -99 000 000 000 -99 000 000 000 000 000 000 -99 -99 -99 -99 -99 -99 -99 -99 000
000 000 000 000 000 000 000 000 000 000 -99 -99 000 000 000 000 000 000 000 000 -99 000 -99 -99 -99 -99 -99 -99 -99 -99 -99
000 000 000 000 000 000 000 000 000 -99 -99 -99 000 000 000 000 000 000 000 000 -99 000 000 000 -99 -99 001 -99 -99 -99 -99
-99 000 000 000 000 000 000 000 000 -99 -99 -99 -99 -99 000 000 000 000 000 -99 -99 000 000 000 000 -99 001 000 000 000 000
-99 000 000 000 000 000 000 000 -99 000 -99 -99 -99 000 000 000 000 000 000 -99 -99 000 000 000 000 000 003 003 000 000 000
000 000 000 000 000 000 000 -99 -99 000 -99 -99 -99 000 000 000 000 000 000 000 000 000 000 -99 000 002 004 005 000 000 000
000 000 000 000 000 000 000 000 000 000 -99 -99 -99 000 000 000 000 000 000 000 000 000 000 000 000 008 009 007 001 000 000
000 000 000 000 000 000 -99 000 000 000 -99 -99 -99 -99 000 000 000 000 000 000 000 000 000 000 001 008 010 011 008 002 002
000 000 000 000 000 000 -99 000 000 -99 -99 -99 -99 000 000 000 000 000 000 000 000 000 000 000 001 006 005 012 015 003 005
000 000 000 000 000 000 -99 000 -99 -99 -99 -99 -99 000 000 000 000 000 -99 000 000 000 000 000 000 002 004 021 013 011 029
000 000 000 000 000 -99 -99 -99 -99 -99 -99 000 -99 000 000 000 000 -99 -99 000 000 000 000 000 000 000 004 016 013 035 075
000 000 000 000 000 000 000 -99 -99 -99 000 000 000 000 000 000 -99 000 000 000 000 000 000 000 001 001 006 016 014 075 078
000 000 000 000 000 000 000 -99 -99 000 000 000 000 000 000 000 001 000 000 000 000 000 000 001 002 006 018 033 039 082 096
000 000 000 000 000 000 -99 000 000 000 000 000 000 000 000 001 000 000 000 000 000 000 002 005 011 017 030 034 028 046 094
000 000 000 000 000 000 000 000 000 000 000 000 000 000 001 002 000 000 000 000 001 002 003 011 011 021 089 085 083 046 062
000 000 000 000 -99 -99 000 000 000 000 000 000 000 001 003 001 001 000 001 003 002 003 007 014 020 035 032 083 077 056 056
000 000 000 000 -99 -99 -99 -99 -99 000 000 000 000 002 002 005 003 002 008 009 002 004 007 007 016 039 037 077 081 054 034
000 000 000 000 000 -99 -99 -99 -99 000 000 000 001 003 004 004 005 005 017 016 002 003 006 006 010 010 032 064 087 048 035
000 000 000 000 000 000 -99 -99 -99 000 000 000 002 004 004 007 007 006 030 019 007 005 006 002 004 009 024 056 035 024 035
001 001 001 001 000 000 000 000 000 000 001 001 006 004 005 008 004 015 031 021 013 011 004 001 002 008 016 019 026 006 012
002 002 001 000 000 000 000 000 000 002 002 002 003 002 003 004 005 015 024 016 013 003 001 000 001 003 007 009 002 001 003
002 002 001 000 001 000 000 000 002 002 001 001 001 001 001 001 002 003 008 006 004 000 000 000 001 001 001 001 001 001 000
001 001 000 000 000 000 000 000 001 000 000 000 001 001 000 000 000 001 000 000 000 000 000 000 000 001 001 002 -99 001 000
000 000 000 001 001 000 000 000 000 000 000 000 000 000 000 000 000 000 000 000 000 -99 -99 000 000 000 -99 -99 -99 -99 -99
000 000 000 001 001 001 000 000 000 000 000 000 000 000 000 000 000 000 000 -99 -99 -99 -99 000 000 -99 -99 -99 -99 -99 -99
000 000 001 001 001 001 001 000 000 000 000 000 000 000 -99 000 000 000 -99 -99 -99 -99 -99 000 -99 -99 -99 -99 -99 -99 -99
